(set-option :print-success false)
(set-logic QF_UF)
(declare-sort x101 0)
(declare-sort x17 0)
(declare-fun x135 () x17)
(declare-fun x77 () x17)
(declare-fun x147 () x17)
(declare-fun x51 () x17)
(declare-fun x56 () x17)
(declare-fun x67 (x17 x17) x17)
(assert (not (and (= (x67 x135 x51) x77) (and (= (x67 x147 x56) x135) (and (= (x67 x135 x56) x51) (= x56 (x67 x147 x147)))))))
(assert (not (and (= x77 (x67 x56 x147)) (and (= (x67 x51 x135) x56) (and (= x135 (x67 x51 x51)) (= (x67 x56 x135) x147))))))
(assert (not (and (= (x67 x51 x56) x147) (and (and (= (x67 x51 x77) x56) (= x77 (x67 x135 x135))) (= (x67 x135 x77) x51)))))
(assert (not (and (= (x67 x77 x51) x135) (and (= (x67 x56 x147) x77) (and (= x147 (x67 x56 x56)) (= (x67 x77 x147) x51))))))
(assert (not (and (and (= x147 (x67 x135 x77)) (and (= x77 (x67 x135 x135)) (= (x67 x147 x77) x51))) (= (x67 x147 x51) x56))))
(assert (not (and (and (= x77 (x67 x56 x147)) (and (= x147 (x67 x56 x56)) (= (x67 x77 x147) x135))) (= x51 (x67 x77 x135)))))
(assert (not (and (and (and (= x135 (x67 x51 x147)) (= (x67 x77 x77) x147)) (= x51 (x67 x77 x147))) (= x56 (x67 x51 x135)))))
(assert (not (and (= (x67 x77 x51) x56) (and (and (= (x67 x135 x135) x147) (= (x67 x77 x147) x51)) (= (x67 x135 x147) x77)))))
(assert (let ((x143 (x67 x51 x135)) (x9 (x67 x56 x51)) (x90 (x67 x135 x51)) (x2 (x67 x56 x135)) (x155 (x67 x56 x147)) (x121 (x67 x77 x147)) (x93 (x67 x135 x147)) (x23 (x67 x51 x51)) (x39 (x67 x147 x77)) (x142 (x67 x51 x77)) (x91 (x67 x77 x56)) (x24 (x67 x51 x56)) (x106 (x67 x56 x56)) (x139 (x67 x147 x135)) (x146 (x67 x56 x77)) (x21 (x67 x147 x56)) (x30 (x67 x51 x147)) (x71 (x67 x77 x77)) (x122 (x67 x135 x77)) (x95 (x67 x135 x56)) (x69 (x67 x147 x51)) (x50 (x67 x77 x51)) (x111 (x67 x135 x135)) (x144 (x67 x77 x135)) (x66 (x67 x147 x147))) (and (and (and (and (and (and (and (and (or (or (or (= x71 x51) (or (= x71 x135) (= x71 x77))) (= x56 x71)) (= x71 x147)) (or (= x144 x147) (or (= x56 x144) (or (= x144 x51) (or (= x144 x77) (= x135 x144)))))) (or (or (or (= x50 x51) (or (= x50 x135) (= x77 x50))) (= x56 x50)) (= x147 x50))) (or (or (or (= x51 x91) (or (= x91 x77) (= x91 x135))) (= x91 x56)) (= x91 x147))) (or (= x121 x147) (or (or (= x51 x121) (or (= x135 x121) (= x77 x121))) (= x121 x56)))) (and (or (= x93 x147) (or (= x56 x93) (or (or (= x93 x135) (= x93 x77)) (= x51 x93)))) (and (and (or (or (= x56 x90) (or (= x51 x90) (or (= x90 x135) (= x77 x90)))) (= x147 x90)) (and (or (= x147 x111) (or (= x56 x111) (or (= x51 x111) (or (= x111 x77) (= x111 x135))))) (or (= x122 x147) (or (= x122 x56) (or (= x122 x51) (or (= x122 x77) (= x135 x122))))))) (or (or (= x56 x95) (or (= x51 x95) (or (= x135 x95) (= x77 x95)))) (= x95 x147))))) (and (or (or (or (= x51 x30) (or (= x77 x30) (= x30 x135))) (= x30 x56)) (= x147 x30)) (and (or (= x24 x147) (or (= x56 x24) (or (= x24 x51) (or (= x135 x24) (= x77 x24))))) (and (or (or (= x56 x23) (or (or (= x23 x135) (= x77 x23)) (= x23 x51))) (= x23 x147)) (and (or (or (or (or (= x143 x135) (= x143 x77)) (= x51 x143)) (= x143 x56)) (= x147 x143)) (or (= x147 x142) (or (or (= x142 x51) (or (= x135 x142) (= x142 x77))) (= x56 x142)))))))) (and (and (and (and (or (or (= x56 x2) (or (= x51 x2) (or (= x2 x77) (= x135 x2)))) (= x2 x147)) (or (or (= x56 x146) (or (= x146 x51) (or (= x146 x77) (= x146 x135)))) (= x147 x146))) (or (= x9 x147) (or (= x9 x56) (or (or (= x9 x135) (= x77 x9)) (= x51 x9))))) (or (= x106 x147) (or (or (or (= x106 x135) (= x106 x77)) (= x51 x106)) (= x106 x56)))) (or (= x155 x147) (or (or (= x51 x155) (or (= x155 x77) (= x135 x155))) (= x56 x155))))) (and (and (and (or (or (or (= x51 x69) (or (= x135 x69) (= x77 x69))) (= x56 x69)) (= x147 x69)) (and (or (or (= x56 x39) (or (= x39 x51) (or (= x39 x77) (= x39 x135)))) (= x147 x39)) (or (or (= x56 x139) (or (or (= x139 x77) (= x135 x139)) (= x51 x139))) (= x147 x139)))) (or (= x21 x147) (or (= x56 x21) (or (= x21 x51) (or (= x135 x21) (= x77 x21)))))) (or (= x66 x147) (or (or (or (= x135 x66) (= x66 x77)) (= x66 x51)) (= x56 x66)))))))
(assert (not (and (and (= (x67 x56 x77) x135) (and (= (x67 x135 x77) x147) (= (x67 x56 x56) x77))) (= (x67 x135 x147) x51))))
(assert (not (and (= (x67 x147 x56) x77) (and (= (x67 x51 x135) x147) (and (= x56 (x67 x147 x135)) (= (x67 x51 x51) x135))))))
(assert (not (and (= x147 (x67 x56 x51)) (and (= x56 (x67 x135 x77)) (and (= (x67 x135 x135) x77) (= (x67 x56 x77) x51))))))
(assert (not (and (= x135 (x67 x147 x77)) (and (and (= x77 (x67 x147 x51)) (= x51 (x67 x56 x56))) (= x147 (x67 x56 x51))))))
(assert (not (and (= (x67 x56 x77) x147) (and (= x56 (x67 x51 x135)) (and (= (x67 x56 x135) x77) (= x135 (x67 x51 x51)))))))
(assert (not (and (= (x67 x51 x56) x77) (and (and (= x135 (x67 x147 x147)) (= (x67 x51 x135) x56)) (= x51 (x67 x147 x135))))))
(assert (not (and (and (= x56 (x67 x147 x77)) (and (= (x67 x56 x77) x51) (= x77 (x67 x147 x147)))) (= (x67 x56 x51) x135))))
(assert (not (and (= (x67 x56 x147) x51) (and (and (= x147 (x67 x56 x77)) (= (x67 x135 x135) x77)) (= x56 (x67 x135 x77))))))
(assert (not (and (= x51 (x67 x56 x135)) (and (and (= x77 (x67 x147 x147)) (= x135 (x67 x56 x77))) (= x56 (x67 x147 x77))))))
(assert (not (and (= x56 (x67 x77 x147)) (and (and (= x147 (x67 x77 x135)) (= x135 (x67 x51 x51))) (= (x67 x51 x135) x77)))))
(assert (not (and (= (x67 x56 x135) x77) (and (= x56 (x67 x51 x147)) (and (= (x67 x56 x147) x135) (= (x67 x51 x51) x147))))))
(assert (let ((x139 (x67 x135 x147)) (x154 (x67 x147 x135)) (x133 (x67 x147 x56)) (x88 (x67 x147 x147)) (x121 (x67 x77 x56)) (x122 (x67 x77 x147)) (x47 (x67 x51 x51)) (x95 (x67 x51 x77)) (x50 (x67 x77 x135)) (x155 (x67 x135 x51)) (x144 (x67 x77 x77)) (x39 (x67 x135 x56)) (x91 (x67 x77 x51)) (x93 (x67 x56 x77)) (x55 (x67 x56 x56)) (x112 (x67 x56 x147)) (x83 (x67 x56 x51)) (x14 (x67 x147 x51)) (x63 (x67 x51 x147)) (x90 (x67 x135 x77)) (x142 (x67 x147 x77)) (x138 (x67 x56 x135)) (x106 (x67 x135 x135)) (x42 (x67 x51 x56)) (x66 (x67 x51 x135))) (let ((x80 (= x56 x106)) (x100 (= x147 x42)) (x31 (= x56 x47)) (x150 (= x147 x50)) (x146 (= x50 x77)) (x78 (= x142 x147)) (x89 (= x139 x51)) (x43 (= x77 x155)) (x117 (= x95 x51)) (x38 (= x138 x77)) (x41 (= x139 x56)) (x6 (= x135 x88)) (x148 (= x77 x112)) (x20 (= x63 x51)) (x123 (= x93 x135)) (x102 (= x56 x155)) (x61 (= x56 x42)) (x92 (= x56 x14)) (x40 (= x147 x55)) (x10 (= x51 x112)) (x105 (= x135 x55)) (x68 (= x135 x47)) (x110 (= x147 x39)) (x120 (= x56 x63)) (x44 (= x155 x135)) (x124 (= x42 x135)) (x46 (= x135 x133)) (x125 (= x135 x139)) (x152 (= x39 x51)) (x21 (= x106 x135)) (x87 (= x121 x77)) (x76 (= x63 x77)) (x73 (= x51 x106)) (x65 (= x39 x56)) (x11 (= x138 x56)) (x36 (= x122 x56)) (x53 (= x66 x147)) (x27 (= x77 x83)) (x151 (= x91 x77)) (x145 (= x135 x14)) (x19 (= x42 x77)) (x37 (= x112 x135)) (x71 (= x77 x144)) (x70 (= x154 x135)) (x103 (= x112 x147)) (x74 (= x122 x135)) (x62 (= x77 x88)) (x86 (= x77 x95)) (x52 (= x56 x66)) (x29 (= x154 x147)) (x26 (= x155 x147)) (x126 (= x135 x63)) (x13 (= x51 x91)) (x118 (= x47 x147)) (x54 (= x51 x83)) (x116 (= x55 x51)) (x35 (= x56 x55)) (x30 (= x90 x77)) (x59 (= x56 x121)) (x7 (= x42 x51)) (x2 (= x106 x77)) (x158 (= x14 x77)) (x75 (= x155 x51)) (x33 (= x142 x135)) (x136 (= x66 x77)) (x114 (= x50 x51)) (x131 (= x77 x55)) (x132 (= x138 x51)) (x143 (= x144 x51)) (x85 (= x139 x147)) (x134 (= x91 x147)) (x64 (= x56 x88)) (x23 (= x56 x144)) (x32 (= x121 x51)) (x141 (= x77 x142)) (x153 (= x93 x56)) (x115 (= x51 x154)) (x4 (= x133 x77)) (x69 (= x135 x50)) (x8 (= x77 x39)) (x140 (= x138 x135)) (x96 (= x56 x83)) (x57 (= x51 x90)) (x34 (= x51 x93)) (x58 (= x154 x56)) (x149 (= x83 x147)) (x24 (= x147 x144)) (x97 (= x77 x154)) (x12 (= x147 x93)) (x49 (= x133 x51)) (x104 (= x147 x63)) (x128 (= x56 x142)) (x156 (= x135 x66)) (x82 (= x51 x122)) (x84 (= x95 x135)) (x22 (= x47 x77)) (x109 (= x122 x147)) (x119 (= x91 x135)) (x129 (= x95 x56)) (x111 (= x135 x144)) (x28 (= x139 x77)) (x94 (= x91 x56)) (x48 (= x147 x90)) (x81 (= x77 x122)) (x79 (= x47 x51)) (x157 (= x147 x138)) (x99 (= x135 x83)) (x72 (= x121 x135)) (x137 (= x133 x56)) (x16 (= x147 x88)) (x15 (= x147 x133)) (x25 (= x88 x51)) (x45 (= x56 x90)) (x3 (= x51 x142)) (x18 (= x51 x14)) (x5 (= x56 x112)) (x9 (= x135 x90)) (x1 (= x66 x51)) (x113 (= x106 x147)) (x130 (= x147 x14)) (x107 (= x95 x147)) (x127 (= x77 x93)) (x98 (= x121 x147)) (x60 (= x39 x135)) (x108 (= x50 x56))) (and (and (and (and (and (and (and (or (or (or x129 (or x45 x23)) x153) x128) (or (or (or x94 (or x108 x23)) x59) x36)) (and (and (or (or x32 (or (or x114 x143) x13)) x82) (or (or x34 (or (or x143 x57) x117)) x3)) (and (and (or x74 (or x72 (or (or x111 x69) x119))) (or (or (or (or x111 x9) x84) x123) x33)) (and (or (or x127 (or x86 (or x30 x71))) x141) (or (or x87 (or (or x146 x71) x151)) x81))))) (and (or (or (or x134 (or x24 x150)) x98) x109) (or (or x12 (or (or x48 x24) x107)) x78))) (and (and (or (or x110 (or x26 (or x113 x48))) x85) (or (or (or (or x150 x113) x53) x157) x29)) (and (and (and (or (or x132 (or (or x73 x114) x1)) x115) (or (or (or (or x73 x57) x75) x152) x89)) (and (and (or (or (or x136 (or x146 x2)) x38) x97) (or (or (or x43 (or x30 x2)) x8) x28)) (and (or x125 (or x60 (or x44 (or x21 x9)))) (or x70 (or (or x156 (or x21 x69)) x140))))) (and (or x41 (or x65 (or (or x45 x80) x102))) (or x58 (or (or (or x80 x108) x52) x11)))))) (and (and (or (or (or x118 (or x26 x134)) x149) x130) (or (or x100 (or (or x53 x107) x118)) x104)) (and (and (and (and (or (or x99 (or (or x119 x44) x68)) x145) (or (or (or x68 (or x84 x156)) x124) x126)) (and (or x158 (or (or (or x151 x43) x22) x27)) (or (or (or (or x136 x86) x22) x19) x76))) (and (or x20 (or (or (or x1 x117) x79) x7)) (or (or x54 (or (or x13 x75) x79)) x18))) (and (or (or (or (or x94 x102) x31) x96) x92) (or (or (or x31 (or x129 x52)) x61) x120))))) (and (and (or (or (or x149 (or x157 x12)) x40) x103) (or x15 (or x40 (or (or x98 x110) x100)))) (and (and (and (or x10 (or x116 (or x54 (or x132 x34)))) (or (or (or x7 (or x32 x152)) x116) x49)) (and (and (or x37 (or x105 (or (or x123 x140) x99))) (or (or x105 (or x124 (or x60 x72))) x46)) (and (or x148 (or x131 (or x27 (or x127 x38)))) (or x4 (or (or x19 (or x87 x8)) x131))))) (and (or (or (or x96 (or x11 x153)) x35) x5) (or x137 (or x35 (or x61 (or x59 x65)))))))) (and (and (or x16 (or (or (or x85 x109) x104) x103)) (or x16 (or x15 (or (or x78 x29) x130)))) (and (and (or (or (or (or x128 x58) x92) x137) x64) (or x64 (or x5 (or (or x36 x41) x120)))) (and (and (or x25 (or (or (or x89 x82) x20) x10)) (or (or (or (or x115 x3) x18) x49) x25)) (and (and (or x62 (or (or (or x81 x28) x76) x148)) (or x62 (or (or x158 (or x97 x141)) x4))) (and (or (or (or (or x125 x74) x126) x37) x6) (or (or x46 (or x145 (or x33 x70))) x6))))))))))
(assert (not (and (and (and (= x147 (x67 x77 x77)) (= (x67 x56 x147) x51)) (= (x67 x77 x147) x56)) (= (x67 x56 x51) x135))))
(assert (not (and (= x147 (x67 x135 x51)) (and (= x135 (x67 x56 x77)) (and (= (x67 x56 x56) x77) (= (x67 x135 x77) x51))))))
(assert (not (and (and (and (= (x67 x51 x51) x147) (= (x67 x77 x147) x135)) (= (x67 x51 x147) x77)) (= x56 (x67 x77 x135)))))
(assert (not (and (and (and (= (x67 x56 x56) x147) (= x51 (x67 x135 x147))) (= x135 (x67 x56 x147))) (= x77 (x67 x135 x51)))))
(assert (not (and (= x51 (x67 x147 x77)) (and (= (x67 x135 x56) x147) (and (= (x67 x135 x135) x56) (= x77 (x67 x147 x56)))))))
(assert (not (and (= (x67 x135 x51) x147) (and (= (x67 x77 x56) x135) (and (= x51 (x67 x135 x56)) (= x56 (x67 x77 x77)))))))
(assert (not (and (= (x67 x51 x56) x147) (and (= x51 (x67 x77 x135)) (and (= x56 (x67 x51 x135)) (= x135 (x67 x77 x77)))))))
(assert (let ((x39 (x67 x51 x147)) (x142 (x67 x56 x77)) (x95 (x67 x51 x51)) (x21 (x67 x147 x56)) (x121 (x67 x77 x51)) (x23 (x67 x56 x135)) (x91 (x67 x135 x135)) (x2 (x67 x77 x147)) (x146 (x67 x56 x56)) (x143 (x67 x135 x56)) (x111 (x67 x135 x51)) (x139 (x67 x147 x51)) (x50 (x67 x135 x77)) (x71 (x67 x77 x77)) (x93 (x67 x77 x56)) (x155 (x67 x147 x135)) (x30 (x67 x56 x51)) (x106 (x67 x135 x147)) (x90 (x67 x51 x135)) (x144 (x67 x77 x135)) (x66 (x67 x147 x147)) (x24 (x67 x51 x56)) (x122 (x67 x51 x77)) (x69 (x67 x56 x147)) (x9 (x67 x147 x77))) (or (or (or (or (not (= x39 x139)) (or (not (= x155 x106)) (not (= x9 x2)))) (not (= x69 x21))) (not (= x66 x66))) (or (or (or (or (not (= x30 x24)) (or (not (= x95 x95)) (or (not (= x122 x121)) (not (= x111 x90))))) (not (= x39 x139))) (or (or (not (= x155 x106)) (or (or (not (= x111 x90)) (or (not (= x50 x144)) (not (= x91 x91)))) (not (= x23 x143)))) (or (not (= x9 x2)) (or (or (not (= x122 x121)) (or (not (= x71 x71)) (not (= x144 x50)))) (not (= x142 x93)))))) (or (or (or (not (= x30 x24)) (or (not (= x23 x143)) (not (= x93 x142)))) (not (= x146 x146))) (not (= x69 x21)))))))
(assert (not (and (= x51 (x67 x56 x77)) (and (and (= (x67 x56 x147) x77) (= x147 (x67 x135 x135))) (= x56 (x67 x135 x147))))))
(assert (not (and (= (x67 x147 x135) x77) (and (= (x67 x56 x51) x147) (and (= x135 (x67 x147 x51)) (= (x67 x56 x56) x51))))))
(assert (not (and (= (x67 x77 x51) x135) (and (= (x67 x147 x56) x77) (and (= (x67 x147 x147) x56) (= (x67 x77 x56) x51))))))
(assert (not (and (= x147 (x67 x135 x77)) (and (= x135 (x67 x56 x51)) (and (= x51 (x67 x56 x56)) (= x77 (x67 x135 x51)))))))
(assert (not (and (= x147 (x67 x56 x51)) (and (and (= (x67 x77 x77) x135) (= (x67 x56 x135) x51)) (= x56 (x67 x77 x135))))))
(assert (not (and (and (and (= x56 (x67 x77 x77)) (= (x67 x135 x56) x147)) (= (x67 x77 x56) x135)) (= x51 (x67 x135 x147)))))
(assert (or (or (or (and (not (= (x67 x51 (x67 x51 x147)) x147)) (and (not (= x56 (x67 x51 (x67 x51 x56)))) (and (not (= (x67 x51 (x67 x51 x51)) x51)) (and (not (= x77 (x67 x51 (x67 x51 x77)))) (not (= (x67 x51 (x67 x51 x135)) x135)))))) (or (and (and (and (not (= x51 (x67 x77 (x67 x77 x51)))) (and (not (= (x67 x77 (x67 x77 x77)) x77)) (not (= (x67 x77 (x67 x77 x135)) x135)))) (not (= x56 (x67 x77 (x67 x77 x56))))) (not (= (x67 x77 (x67 x77 x147)) x147))) (and (not (= (x67 x135 (x67 x135 x147)) x147)) (and (and (and (not (= x77 (x67 x135 (x67 x135 x77)))) (not (= (x67 x135 (x67 x135 x135)) x135))) (not (= (x67 x135 (x67 x135 x51)) x51))) (not (= x56 (x67 x135 (x67 x135 x56)))))))) (and (and (and (not (= (x67 x56 (x67 x56 x51)) x51)) (and (not (= (x67 x56 (x67 x56 x77)) x77)) (not (= (x67 x56 (x67 x56 x135)) x135)))) (not (= x56 (x67 x56 (x67 x56 x56))))) (not (= (x67 x56 (x67 x56 x147)) x147)))) (and (not (= x147 (x67 x147 (x67 x147 x147)))) (and (and (not (= (x67 x147 (x67 x147 x51)) x51)) (and (not (= (x67 x147 (x67 x147 x135)) x135)) (not (= (x67 x147 (x67 x147 x77)) x77)))) (not (= x56 (x67 x147 (x67 x147 x56))))))))
(assert (not (and (= (x67 x56 x77) x135) (and (and (= x77 (x67 x56 x147)) (= (x67 x51 x51) x147)) (= (x67 x51 x147) x56)))))
(assert (not (and (= x135 (x67 x147 x51)) (and (= (x67 x56 x77) x147) (and (= x77 (x67 x56 x56)) (= x51 (x67 x147 x77)))))))
(assert (not (and (and (and (= (x67 x135 x135) x56) (= (x67 x51 x56) x77)) (= x51 (x67 x135 x56))) (= (x67 x51 x77) x147))))
(assert (not (and (= x135 (x67 x147 x56)) (and (and (= (x67 x77 x77) x51) (= x56 (x67 x147 x51))) (= x147 (x67 x77 x51))))))
(assert (not (and (and (= (x67 x147 x56) x51) (and (= x56 (x67 x147 x147)) (= x77 (x67 x51 x56)))) (= x135 (x67 x51 x77)))))
(assert (not (and (and (and (= (x67 x135 x135) x147) (= (x67 x51 x147) x77)) (= x51 (x67 x135 x147))) (= (x67 x51 x77) x56))))
(assert (not (and (= (x67 x51 x147) x135) (and (and (= x147 (x67 x51 x77)) (= x77 (x67 x56 x56))) (= (x67 x56 x77) x51)))))
(assert (not (and (= x51 (x67 x147 x77)) (and (= (x67 x56 x135) x147) (and (= (x67 x147 x135) x77) (= x135 (x67 x56 x56)))))))
(assert (not (and (and (and (= (x67 x51 x147) x77) (= (x67 x56 x56) x147)) (= x51 (x67 x56 x147))) (= x135 (x67 x51 x77)))))
(assert (let ((x139 (x67 x135 x147)) (x50 (x67 x51 x77)) (x95 (x67 x56 x135)) (x142 (x67 x77 x51)) (x91 (x67 x56 x77)) (x146 (x67 x77 x56)) (x23 (x67 x51 x51)) (x144 (x67 x135 x77)) (x9 (x67 x51 x56)) (x106 (x67 x56 x56)) (x71 (x67 x77 x77)) (x24 (x67 x56 x51)) (x21 (x67 x56 x147)) (x111 (x67 x135 x135)) (x121 (x67 x147 x77)) (x90 (x67 x51 x135)) (x2 (x67 x135 x56)) (x122 (x67 x77 x135)) (x155 (x67 x147 x56)) (x93 (x67 x147 x135)) (x30 (x67 x147 x51)) (x69 (x67 x51 x147)) (x66 (x67 x147 x147)) (x39 (x67 x77 x147)) (x143 (x67 x135 x51))) (and (and (and (and (and (and (not (= x91 x121)) (and (and (and (and (and (not (= x50 x144)) (and (and (and (not (= x50 x71)) (not (= x144 x71))) (not (= x71 x91))) (not (= x121 x71)))) (not (= x91 x144))) (not (= x144 x121))) (not (= x50 x91))) (not (= x50 x121)))) (and (not (= x95 x93)) (and (and (not (= x95 x90)) (and (and (and (not (= x90 x111)) (and (not (= x93 x122)) (and (not (= x122 x95)) (and (not (= x111 x122)) (not (= x90 x122)))))) (not (= x111 x95))) (not (= x111 x93)))) (not (= x93 x90))))) (and (and (and (and (not (= x143 x30)) (and (and (not (= x143 x23)) (and (not (= x30 x142)) (and (and (not (= x142 x143)) (not (= x23 x142))) (not (= x142 x24))))) (not (= x24 x143)))) (not (= x24 x23))) (not (= x30 x23))) (not (= x24 x30)))) (and (and (and (and (not (= x155 x2)) (and (not (= x106 x2)) (and (not (= x9 x2)) (and (not (= x146 x155)) (and (not (= x146 x106)) (and (not (= x9 x146)) (not (= x2 x146)))))))) (not (= x9 x106))) (not (= x155 x9))) (not (= x106 x155)))) (and (not (= x21 x66)) (and (not (= x69 x66)) (and (and (and (and (not (= x139 x69)) (and (not (= x39 x66)) (and (and (not (= x39 x69)) (not (= x39 x139))) (not (= x21 x39))))) (not (= x21 x139))) (not (= x139 x66))) (not (= x69 x21)))))) (and (and (and (not (= x21 x106)) (and (and (not (= x106 x24)) (and (not (= x95 x21)) (and (not (= x106 x95)) (and (not (= x24 x95)) (and (not (= x91 x21)) (and (and (not (= x91 x95)) (not (= x24 x91))) (not (= x91 x106)))))))) (not (= x24 x21)))) (and (and (and (not (= x23 x69)) (and (and (not (= x69 x90)) (and (not (= x90 x9)) (and (and (and (and (not (= x50 x90)) (not (= x50 x23))) (not (= x9 x50))) (not (= x69 x50))) (not (= x90 x23))))) (not (= x9 x23)))) (not (= x69 x9))) (and (and (and (not (= x39 x142)) (and (and (not (= x122 x39)) (and (not (= x122 x146)) (and (not (= x142 x122)) (and (not (= x39 x71)) (and (and (not (= x142 x71)) (not (= x71 x122))) (not (= x146 x71))))))) (not (= x146 x142)))) (not (= x146 x39))) (and (not (= x2 x139)) (and (not (= x143 x139)) (and (and (not (= x111 x139)) (and (not (= x111 x2)) (and (not (= x143 x111)) (and (and (not (= x2 x144)) (and (not (= x143 x144)) (not (= x144 x111)))) (not (= x144 x139)))))) (not (= x143 x2)))))))) (and (not (= x155 x66)) (and (not (= x66 x30)) (and (and (and (and (not (= x30 x93)) (and (not (= x66 x121)) (and (and (not (= x121 x30)) (not (= x121 x93))) (not (= x155 x121))))) (not (= x93 x155))) (not (= x93 x66))) (not (= x30 x155)))))))))
(assert (not (and (and (= (x67 x147 x135) x56) (and (= x77 (x67 x56 x135)) (= x135 (x67 x147 x147)))) (= x51 (x67 x56 x77)))))
(assert (not (and (and (and (= x51 (x67 x135 x135)) (= x56 (x67 x77 x51))) (= x77 (x67 x135 x51))) (= (x67 x77 x56) x147))))
(assert (not (and (= (x67 x77 x147) x51) (and (= x77 (x67 x56 x135)) (and (= (x67 x77 x135) x147) (= (x67 x56 x56) x135))))))
(assert (not (and (and (= x56 (x67 x147 x51)) (and (= x51 (x67 x147 x147)) (= x77 (x67 x56 x51)))) (= (x67 x56 x77) x135))))
(assert (not (and (and (= (x67 x147 x51) x56) (and (= (x67 x147 x147) x51) (= x135 (x67 x56 x51)))) (= x77 (x67 x56 x135)))))
(assert (let ((x48 (x67 x77 x147)) (x83 (x67 x51 x51)) (x80 (x67 x56 x77)) (x75 (x67 x147 x51)) (x150 (x67 x147 x77)) (x45 (x67 x51 x77)) (x57 (x67 x77 x135)) (x107 (x67 x56 x56)) (x136 (x67 x135 x135)) (x108 (x67 x77 x56)) (x43 (x67 x135 x51)) (x117 (x67 x51 x56)) (x134 (x67 x56 x147)) (x13 (x67 x51 x147)) (x1 (x67 x56 x51)) (x156 (x67 x56 x135)) (x123 (x67 x147 x147)) (x114 (x67 x135 x77)) (x42 (x67 x147 x135)) (x84 (x67 x135 x56)) (x47 (x67 x135 x147)) (x138 (x67 x77 x77)) (x22 (x67 x51 x135)) (x26 (x67 x147 x56)) (x73 (x67 x77 x51))) (let ((x102 (= x135 x1)) (x115 (= x123 x56)) (x86 (= x57 x135)) (x104 (= x147 x26)) (x106 (= x77 x42)) (x105 (= x51 x22)) (x148 (= x56 x156)) (x121 (= x77 x45)) (x5 (= x147 x117)) (x10 (= x147 x73)) (x16 (= x123 x147)) (x32 (= x51 x156)) (x100 (= x56 x57)) (x154 (= x135 x138)) (x36 (= x156 x147)) (x99 (= x138 x51)) (x64 (= x147 x107)) (x144 (= x77 x114)) (x35 (= x13 x51)) (x137 (= x108 x147)) (x27 (= x47 x135)) (x118 (= x135 x150)) (x111 (= x22 x77)) (x20 (= x45 x147)) (x145 (= x56 x107)) (x131 (= x135 x134)) (x30 (= x117 x77)) (x24 (= x1 x77)) (x18 (= x138 x147)) (x95 (= x77 x83)) (x130 (= x42 x147)) (x151 (= x135 x136)) (x93 (= x80 x77)) (x50 (= x77 x57)) (x129 (= x135 x108)) (x58 (= x147 x83)) (x11 (= x51 x150)) (x40 (= x136 x56)) (x31 (= x135 x117)) (x94 (= x135 x84)) (x109 (= x75 x147)) (x87 (= x75 x135)) (x97 (= x73 x56)) (x146 (= x77 x107)) (x8 (= x135 x13)) (x49 (= x147 x114)) (x53 (= x135 x107)) (x153 (= x107 x51)) (x124 (= x73 x51)) (x139 (= x77 x13)) (x52 (= x156 x135)) (x89 (= x147 x136)) (x119 (= x135 x73)) (x2 (= x77 x150)) (x141 (= x56 x45)) (x62 (= x56 x84)) (x66 (= x123 x77)) (x70 (= x117 x56)) (x61 (= x75 x51)) (x28 (= x56 x80)) (x158 (= x22 x56)) (x103 (= x147 x134)) (x116 (= x51 x117)) (x9 (= x48 x77)) (x41 (= x147 x84)) (x3 (= x134 x56)) (x25 (= x147 x22)) (x54 (= x108 x51)) (x63 (= x135 x45)) (x85 (= x147 x13)) (x96 (= x51 x48)) (x155 (= x47 x77)) (x37 (= x13 x56)) (x34 (= x51 x83)) (x88 (= x48 x56)) (x152 (= x51 x84)) (x44 (= x135 x22)) (x90 (= x77 x43)) (x6 (= x26 x56)) (x113 (= x114 x135)) (x140 (= x135 x123)) (x38 (= x135 x42)) (x14 (= x83 x135)) (x127 (= x135 x48)) (x65 (= x47 x51)) (x98 (= x138 x56)) (x19 (= x26 x135)) (x7 (= x51 x1)) (x29 (= x48 x147)) (x92 (= x147 x80)) (x72 (= x136 x51)) (x69 (= x26 x77)) (x149 (= x51 x123)) (x71 (= x138 x77)) (x142 (= x77 x108)) (x4 (= x43 x56)) (x143 (= x156 x77)) (x82 (= x57 x147)) (x68 (= x135 x43)) (x157 (= x51 x134)) (x46 (= x56 x150)) (x79 (= x80 x135)) (x15 (= x47 x147)) (x91 (= x136 x77)) (x33 (= x56 x1)) (x12 (= x51 x26)) (x125 (= x47 x56)) (x55 (= x114 x51)) (x39 (= x77 x75)) (x74 (= x56 x42)) (x112 (= x51 x57)) (x78 (= x147 x150)) (x21 (= x77 x134)) (x132 (= x80 x51)) (x126 (= x75 x56)) (x120 (= x147 x1)) (x122 (= x73 x77)) (x59 (= x51 x42)) (x110 (= x114 x56)) (x76 (= x56 x108)) (x23 (= x84 x77)) (x81 (= x83 x56)) (x133 (= x43 x51)) (x128 (= x43 x147)) (x60 (= x45 x51))) (and (or (or (or (and (not x104) x103) (or (and (not x64) x64) (or (or (and x92 (not x137)) (and (not x41) x36)) (and (not x5) x120)))) (or (or (or (and x29 (not x78)) (or (and x137 (not x92)) (or (and x10 (not x20)) (or (and (not x49) x82) (and (not x18) x18))))) (or (and (not x130) x15) (or (or (and (not x25) x128) (or (and x89 (not x89)) (and (not x82) x49))) (and x41 (not x36))))) (or (or (or (and (not x58) x58) (or (and x20 (not x10)) (and (not x128) x25))) (and x5 (not x120))) (and x85 (not x109))))) (or (and (not x16) x16) (or (and (not x103) x104) (or (and (not x85) x109) (or (and (not x15) x130) (and (not x29) x78)))))) (and (and (and (or (or (or (and (not x131) x19) (or (and x87 (not x8)) (or (and x118 (not x127)) (and x38 (not x27))))) (and x140 (not x140))) (or (or (and (not x19) x131) (or (or (or (and (not x129) x79) (and (not x94) x52)) (and x102 (not x31))) (and (not x53) x53))) (or (or (or (and x127 (not x118)) (or (or (and x119 (not x63)) (or (and (not x154) x154) (and x86 (not x113)))) (and x129 (not x79)))) (or (or (and (not x52) x94) (or (or (and (not x86) x113) (and x151 (not x151))) (and x68 (not x44)))) (and (not x38) x27))) (or (and x8 (not x87)) (or (or (and x14 (not x14)) (or (and x44 (not x68)) (and x63 (not x119)))) (and (not x102) x31)))))) (or (or (or (and x69 (not x21)) (or (and (not x139) x39) (or (and (not x9) x2) (and x106 (not x155))))) (and x66 (not x66))) (or (or (or (or (or (or (and x121 (not x122)) (and (not x90) x111)) (and (not x95) x95)) (and (not x24) x30)) (and x139 (not x39))) (or (or (or (or (or (and x50 (not x144)) (and x71 (not x71))) (and (not x121) x122)) (and x142 (not x93))) (and x9 (not x2))) (or (or (and x23 (not x143)) (or (or (and (not x91) x91) (and (not x50) x144)) (and (not x111) x90))) (and (not x106) x155)))) (or (or (and (not x146) x146) (or (or (and x93 (not x142)) (and x143 (not x23))) (and x24 (not x30)))) (and x21 (not x69)))))) (or (or (or (and x12 (not x157)) (or (and x61 (not x35)) (or (and x11 (not x96)) (and (not x65) x59)))) (and x149 (not x149))) (or (or (or (or (and (not x11) x96) (or (and (not x132) x54) (or (or (and x112 (not x55)) (and (not x99) x99)) (and (not x60) x124)))) (or (or (or (or (and x72 (not x72)) (and (not x112) x55)) (and (not x105) x133)) (and x152 (not x32))) (and x65 (not x59)))) (or (and (not x61) x35) (or (or (and x34 (not x34)) (or (and (not x133) x105) (and x60 (not x124)))) (and x116 (not x7))))) (or (or (and (not x153) x153) (or (and x7 (not x116)) (or (and x32 (not x152)) (and (not x54) x132)))) (and x157 (not x12)))))) (or (or (or (and (not x6) x3) (or (and x145 (not x145)) (or (and x33 (not x70)) (or (and x148 (not x62)) (and x28 (not x76)))))) (or (or (and x37 (not x126)) (or (and (not x33) x70) (or (or (and (not x97) x141) (and (not x4) x158)) (and x81 (not x81))))) (or (or (or (and (not x148) x62) (or (and (not x158) x4) (or (and (not x40) x40) (and x110 (not x100))))) (and (not x74) x125)) (or (or (or (and (not x141) x97) (or (and x100 (not x110)) (and x98 (not x98)))) (and x76 (not x28))) (and (not x46) x88))))) (or (or (and (not x3) x6) (or (and x126 (not x37)) (or (and (not x125) x74) (and x46 (not x88))))) (and (not x115) x115))))))))
(assert (not (and (= x56 (x67 x77 x135)) (and (and (= x135 (x67 x77 x51)) (= (x67 x147 x147) x51)) (= x77 (x67 x147 x51))))))
(assert (not (and (and (= (x67 x147 x77) x51) (and (= x135 (x67 x51 x77)) (= (x67 x147 x147) x77))) (= (x67 x51 x135) x56))))
(assert (not (and (and (= (x67 x135 x51) x56) (and (= (x67 x56 x51) x77) (= x51 (x67 x135 x135)))) (= x147 (x67 x56 x77)))))
(assert (not (and (= x77 (x67 x51 x147)) (and (and (= (x67 x51 x56) x147) (= (x67 x135 x135) x56)) (= (x67 x135 x56) x51)))))
(assert (not (and (and (and (= x135 (x67 x147 x56)) (= (x67 x51 x51) x56)) (= (x67 x51 x56) x147)) (= x77 (x67 x147 x135)))))
(assert (not (and (and (= x56 (x67 x147 x135)) (and (= (x67 x147 x147) x135) (= (x67 x56 x135) x51))) (= x77 (x67 x56 x51)))))
(assert (not (and (= x135 (x67 x77 x147)) (and (and (= (x67 x51 x51) x56) (= (x67 x77 x56) x147)) (= x77 (x67 x51 x56))))))
(assert (not (and (and (= (x67 x56 x135) x51) (and (= (x67 x51 x135) x147) (= x135 (x67 x56 x56)))) (= x77 (x67 x51 x147)))))
(assert (not (and (and (and (= (x67 x51 x147) x56) (= x147 (x67 x77 x77))) (= (x67 x77 x147) x51)) (= x135 (x67 x51 x56)))))
(assert (not (and (and (= (x67 x135 x147) x77) (and (= (x67 x77 x147) x56) (= x147 (x67 x135 x135)))) (= (x67 x77 x56) x51))))
(assert (not (and (and (and (= x147 (x67 x51 x51)) (= (x67 x135 x147) x77)) (= x135 (x67 x51 x147))) (= x56 (x67 x135 x77)))))
(assert (not (and (= x147 (x67 x56 x135)) (and (and (= (x67 x77 x77) x51) (= x135 (x67 x56 x51))) (= (x67 x77 x51) x56)))))
(assert (not (and (and (= x135 (x67 x147 x51)) (and (= x51 (x67 x147 x147)) (= x77 (x67 x135 x51)))) (= (x67 x135 x77) x56))))
(assert (not (and (= x51 (x67 x77 x135)) (and (and (= x135 (x67 x77 x56)) (= x56 (x67 x147 x147))) (= (x67 x147 x56) x77)))))
(assert (not (and (= x51 (x67 x135 x77)) (and (= (x67 x56 x147) x135) (and (= x77 (x67 x135 x147)) (= x147 (x67 x56 x56)))))))
(assert (not (and (and (= (x67 x135 x77) x51) (and (= x147 (x67 x51 x77)) (= x77 (x67 x135 x135)))) (= (x67 x51 x147) x56))))
(assert (not (and (and (and (= (x67 x77 x77) x56) (= (x67 x147 x56) x51)) (= (x67 x77 x56) x147)) (= (x67 x147 x51) x135))))
(assert (not (and (= (x67 x56 x147) x51) (and (and (= x147 (x67 x56 x135)) (= x135 (x67 x77 x77))) (= (x67 x77 x135) x56)))))
(assert (not (and (and (and (= (x67 x77 x51) x147) (= x51 (x67 x135 x135))) (= (x67 x135 x51) x77)) (= (x67 x77 x147) x56))))
(assert (or (= x147 (x67 x147 x147)) (or (or (or (= (x67 x135 x135) x135) (= x77 (x67 x77 x77))) (= (x67 x51 x51) x51)) (= x56 (x67 x56 x56)))))
(assert (not (and (= (x67 x56 x147) x135) (and (= x56 (x67 x77 x51)) (and (= x147 (x67 x56 x51)) (= (x67 x77 x77) x51))))))
(assert (not (and (and (and (= (x67 x56 x56) x147) (= x135 (x67 x51 x147))) (= x51 (x67 x56 x147))) (= (x67 x51 x135) x77))))
(assert (not (and (and (= x147 (x67 x51 x56)) (and (= (x67 x51 x51) x56) (= (x67 x147 x56) x77))) (= x135 (x67 x147 x77)))))
(assert (not (and (= x56 (x67 x147 x135)) (and (and (= (x67 x147 x77) x135) (= (x67 x51 x51) x77)) (= (x67 x51 x77) x147)))))
(assert (not (and (and (and (= x51 (x67 x147 x135)) (= (x67 x56 x56) x135)) (= x147 (x67 x56 x135))) (= x77 (x67 x147 x51)))))
(assert (not (and (and (and (= (x67 x51 x51) x135) (= (x67 x77 x135) x56)) (= (x67 x51 x135) x77)) (= x147 (x67 x77 x56)))))
(assert (not (and (and (and (= (x67 x51 x51) x147) (= (x67 x135 x147) x56)) (= x135 (x67 x51 x147))) (= x77 (x67 x135 x56)))))
(assert (not (and (= x135 (x67 x56 x147)) (and (= (x67 x51 x77) x56) (and (= (x67 x51 x51) x77) (= x147 (x67 x56 x77)))))))
(assert (not (and (and (and (= (x67 x51 x77) x56) (= x77 (x67 x147 x147))) (= x51 (x67 x147 x77))) (= x135 (x67 x51 x56)))))
(assert (not (and (= (x67 x51 x147) x56) (and (= (x67 x77 x135) x51) (and (= x135 (x67 x77 x77)) (= (x67 x51 x135) x147))))))
(assert (not (and (= x147 (x67 x135 x77)) (and (= x135 (x67 x51 x56)) (and (= x77 (x67 x135 x56)) (= (x67 x51 x51) x56))))))
(assert (not (and (and (and (= x51 (x67 x77 x135)) (= (x67 x56 x56) x135)) (= x77 (x67 x56 x135))) (= (x67 x77 x51) x147))))
(assert (not (and (= (x67 x147 x135) x56) (and (= x147 (x67 x77 x51)) (and (= (x67 x77 x77) x51) (= (x67 x147 x51) x135))))))
(assert (not (and (and (= (x67 x147 x56) x135) (and (= x56 (x67 x147 x147)) (= (x67 x135 x56) x77))) (= (x67 x135 x77) x51))))
(assert (not (and (and (and (= x51 (x67 x135 x77)) (= x77 (x67 x147 x147))) (= (x67 x147 x77) x135)) (= x56 (x67 x135 x51)))))
(assert (not (and (and (= x135 (x67 x77 x147)) (and (= x147 (x67 x77 x77)) (= x51 (x67 x135 x147)))) (= (x67 x135 x51) x56))))
(assert (let ((x71 (x67 x77 x77)) (x121 (x67 x147 x147)) (x144 (x67 x135 x135)) (x50 (x67 x51 x51)) (x91 (x67 x56 x56))) (and (and (or (= x121 x56) (or (or (or (= x56 x71) (= x56 x144)) (= x50 x56)) (= x56 x91))) (and (or (= x51 x121) (or (or (= x50 x51) (or (= x144 x51) (= x71 x51))) (= x91 x51))) (and (or (= x121 x135) (or (= x135 x91) (or (or (= x144 x135) (= x135 x71)) (= x50 x135)))) (or (or (or (or (= x77 x71) (= x144 x77)) (= x77 x50)) (= x77 x91)) (= x77 x121))))) (or (or (= x91 x147) (or (= x147 x50) (or (= x147 x144) (= x71 x147)))) (= x147 x121)))))
(assert (not (and (= x135 (x67 x77 x56)) (and (= x77 (x67 x147 x51)) (and (= (x67 x147 x147) x51) (= (x67 x77 x51) x56))))))
(assert (not (and (and (= (x67 x51 x77) x135) (and (= x77 (x67 x51 x51)) (= (x67 x135 x77) x56))) (= x147 (x67 x135 x56)))))
(assert (not (and (= x147 (x67 x51 x77)) (and (and (= x77 (x67 x51 x135)) (= (x67 x56 x56) x135)) (= x51 (x67 x56 x135))))))
(assert (not (and (= (x67 x56 x135) x147) (and (and (= x77 (x67 x51 x51)) (= x135 (x67 x56 x77))) (= (x67 x51 x77) x56)))))
(assert (not (and (and (= x56 (x67 x135 x51)) (and (= (x67 x135 x135) x51) (= x147 (x67 x56 x51)))) (= x77 (x67 x56 x147)))))
(assert (not (and (= (x67 x77 x147) x135) (and (= x77 (x67 x56 x51)) (and (= (x67 x77 x51) x147) (= (x67 x56 x56) x51))))))
(assert (not (and (= x56 (x67 x147 x77)) (and (= (x67 x135 x51) x147) (and (= (x67 x147 x51) x77) (= x51 (x67 x135 x135)))))))
(assert (not (and (and (= (x67 x147 x135) x77) (and (= x135 (x67 x147 x147)) (= x56 (x67 x77 x135)))) (= (x67 x77 x56) x51))))
(assert (not (and (and (= x147 (x67 x56 x77)) (and (= x135 (x67 x147 x77)) (= x77 (x67 x56 x56)))) (= x51 (x67 x147 x135)))))
(assert (not (and (= (x67 x147 x51) x77) (and (= (x67 x135 x56) x147) (and (= (x67 x147 x56) x51) (= (x67 x135 x135) x56))))))
(assert (not (and (= (x67 x147 x135) x51) (and (and (= (x67 x77 x77) x56) (= (x67 x147 x56) x135)) (= x147 (x67 x77 x56))))))
(assert (not (and (and (= (x67 x135 x147) x51) (and (= (x67 x135 x135) x147) (= x56 (x67 x51 x147)))) (= x77 (x67 x51 x56)))))
(assert (not (and (and (and (= (x67 x147 x135) x56) (= x135 (x67 x77 x77))) (= (x67 x77 x135) x147)) (= (x67 x147 x56) x51))))
(assert (not (and (= (x67 x56 x135) x51) (and (and (= x147 (x67 x77 x77)) (= x135 (x67 x56 x147))) (= (x67 x77 x147) x56)))))
(assert (not (and (and (= (x67 x51 x147) x77) (and (= (x67 x77 x147) x56) (= (x67 x51 x51) x147))) (= (x67 x77 x56) x135))))
(assert (not (and (and (= (x67 x147 x135) x51) (and (= x77 (x67 x51 x135)) (= x135 (x67 x147 x147)))) (= x56 (x67 x51 x77)))))
(assert (not (and (= x51 (x67 x135 x56)) (and (and (= (x67 x77 x77) x147) (= (x67 x135 x147) x56)) (= x135 (x67 x77 x147))))))
(assert (not (and (= (x67 x147 x51) x56) (and (= (x67 x77 x135) x147) (and (= x51 (x67 x147 x135)) (= x135 (x67 x77 x77)))))))
(assert (not (and (= (x67 x147 x56) x77) (and (and (= x56 (x67 x147 x51)) (= (x67 x135 x135) x51)) (= (x67 x135 x51) x147)))))
(assert (not (and (= x135 (x67 x147 x56)) (and (and (= (x67 x51 x51) x77) (= (x67 x147 x77) x56)) (= (x67 x51 x77) x147)))))
(assert (not (and (= (x67 x147 x56) x51) (and (and (= (x67 x135 x135) x77) (= (x67 x147 x77) x56)) (= x147 (x67 x135 x77))))))
(assert (not (and (= (x67 x51 x135) x147) (and (= (x67 x56 x77) x51) (and (= x135 (x67 x51 x77)) (= x77 (x67 x56 x56)))))))
(assert (not (and (= x51 (x67 x77 x147)) (and (and (= x56 (x67 x135 x135)) (= x147 (x67 x77 x56))) (= x77 (x67 x135 x56))))))
(assert (not (and (= (x67 x77 x135) x147) (and (and (= x135 (x67 x77 x56)) (= (x67 x51 x51) x56)) (= x77 (x67 x51 x56))))))
(assert (not (and (= x77 (x67 x56 x51)) (and (and (= x147 (x67 x135 x135)) (= (x67 x56 x147) x51)) (= (x67 x135 x147) x56)))))
(assert (not (and (and (and (= x56 (x67 x135 x51)) (= x51 (x67 x77 x77))) (= (x67 x77 x51) x135)) (= (x67 x135 x56) x147))))
(assert (not (and (and (= (x67 x147 x77) x135) (and (= (x67 x147 x147) x77) (= x56 (x67 x135 x77)))) (= x51 (x67 x135 x56)))))
(assert (or (and (not (= (x67 x147 x147) x147)) (and (and (and (not (= (x67 x135 x147) x135)) (not (= (x67 x77 x147) x77))) (not (= (x67 x51 x147) x51))) (not (= (x67 x56 x147) x56)))) (or (and (and (not (= x56 (x67 x56 x56))) (and (and (not (= x77 (x67 x77 x56))) (not (= x135 (x67 x135 x56)))) (not (= x51 (x67 x51 x56))))) (not (= (x67 x147 x56) x147))) (or (and (and (and (not (= (x67 x51 x51) x51)) (and (not (= (x67 x135 x51) x135)) (not (= (x67 x77 x51) x77)))) (not (= (x67 x56 x51) x56))) (not (= (x67 x147 x51) x147))) (or (and (and (not (= x56 (x67 x56 x135))) (and (not (= x51 (x67 x51 x135))) (and (not (= (x67 x135 x135) x135)) (not (= x77 (x67 x77 x135)))))) (not (= x147 (x67 x147 x135)))) (and (and (and (and (not (= x77 (x67 x77 x77))) (not (= x135 (x67 x135 x77)))) (not (= x51 (x67 x51 x77)))) (not (= (x67 x56 x77) x56))) (not (= x147 (x67 x147 x77)))))))))
(assert (not (and (and (= x135 (x67 x77 x51)) (and (= x51 (x67 x77 x77)) (= x147 (x67 x135 x51)))) (= (x67 x135 x147) x56))))
(assert (not (and (= (x67 x77 x51) x147) (and (= (x67 x135 x56) x77) (and (= (x67 x77 x56) x51) (= x56 (x67 x135 x135)))))))
(assert (not (and (= (x67 x147 x77) x56) (and (and (= (x67 x147 x135) x77) (= x135 (x67 x51 x51))) (= (x67 x51 x135) x147)))))
(assert (not (and (and (and (= x147 (x67 x135 x51)) (= (x67 x56 x56) x51)) (= (x67 x56 x51) x135)) (= (x67 x135 x147) x77))))
(assert (not (and (and (= x135 (x67 x51 x77)) (and (= (x67 x135 x77) x147) (= (x67 x51 x51) x77))) (= x56 (x67 x135 x147)))))
(assert (not (and (= (x67 x135 x56) x77) (and (= (x67 x147 x51) x135) (and (= (x67 x147 x147) x51) (= (x67 x135 x51) x56))))))
(assert (not (and (and (and (= x135 (x67 x51 x56)) (= x56 (x67 x77 x77))) (= x51 (x67 x77 x56))) (= x147 (x67 x51 x135)))))
(assert (not (and (and (= x135 (x67 x51 x56)) (and (= x147 (x67 x135 x56)) (= (x67 x51 x51) x56))) (= (x67 x135 x147) x77))))
(assert (not (and (and (= (x67 x147 x135) x77) (and (= (x67 x147 x147) x135) (= x51 (x67 x77 x135)))) (= (x67 x77 x51) x56))))
(assert (and (not (= x56 x147)) (and (not (= x147 x51)) (and (not (= x51 x56)) (and (and (not (= x56 x135)) (and (and (not (= x147 x77)) (and (not (= x77 x56)) (and (not (= x77 x51)) (not (= x135 x77))))) (not (= x51 x135)))) (not (= x147 x135)))))))
(assert (not (and (and (= (x67 x147 x56) x51) (and (= x56 (x67 x147 x147)) (= (x67 x51 x56) x135))) (= x77 (x67 x51 x135)))))
(assert (not (and (= x147 (x67 x77 x135)) (and (= (x67 x56 x51) x77) (and (= x51 (x67 x56 x56)) (= (x67 x77 x51) x135))))))
(assert (not (and (= x135 (x67 x51 x147)) (and (= x51 (x67 x77 x56)) (and (= (x67 x77 x77) x56) (= (x67 x51 x56) x147))))))
(check-sat)
(exit)
